<instance format="XCSP3" type="COP">
  <variables>
    <array id="x" size="[67]"> 0..66 </array>
  </variables>
  <constraints>
    <group>
      <intension> ne(%0,%1) </intension>
      <args> x[0] x[1] </args>
      <args> x[0] x[3] </args>
      <args> x[0] x[8] </args>
      <args> x[0] x[10] </args>
      <args> x[0] x[23] </args>
      <args> x[0] x[25] </args>
      <args> x[0] x[30] </args>
      <args> x[0] x[32] </args>
      <args> x[1] x[2] </args>
      <args> x[1] x[7] </args>
      <args> x[1] x[9] </args>
      <args> x[1] x[22] </args>
      <args> x[1] x[24] </args>
      <args> x[1] x[29] </args>
      <args> x[1] x[31] </args>
      <args> x[2] x[5] </args>
      <args> x[2] x[8] </args>
      <args> x[2] x[12] </args>
      <args> x[2] x[23] </args>
      <args> x[2] x[27] </args>
      <args> x[2] x[30] </args>
      <args> x[2] x[34] </args>
      <args> x[3] x[4] </args>
      <args> x[3] x[7] </args>
      <args> x[3] x[11] </args>
      <args> x[3] x[22] </args>
      <args> x[3] x[26] </args>
      <args> x[3] x[29] </args>
      <args> x[3] x[33] </args>
      <args> x[4] x[6] </args>
      <args> x[4] x[10] </args>
      <args> x[4] x[13] </args>
      <args> x[4] x[25] </args>
      <args> x[4] x[28] </args>
      <args> x[4] x[32] </args>
      <args> x[4] x[35] </args>
      <args> x[5] x[6] </args>
      <args> x[5] x[9] </args>
      <args> x[5] x[13] </args>
      <args> x[5] x[24] </args>
      <args> x[5] x[28] </args>
      <args> x[5] x[31] </args>
      <args> x[5] x[35] </args>
      <args> x[6] x[11] </args>
      <args> x[6] x[12] </args>
      <args> x[6] x[26] </args>
      <args> x[6] x[27] </args>
      <args> x[6] x[33] </args>
      <args> x[6] x[34] </args>
      <args> x[7] x[15] </args>
      <args> x[7] x[17] </args>
      <args> x[7] x[23] </args>
      <args> x[7] x[25] </args>
      <args> x[7] x[37] </args>
      <args> x[7] x[39] </args>
      <args> x[8] x[14] </args>
      <args> x[8] x[16] </args>
      <args> x[8] x[22] </args>
      <args> x[8] x[24] </args>
      <args> x[8] x[36] </args>
      <args> x[8] x[38] </args>
      <args> x[9] x[15] </args>
      <args> x[9] x[19] </args>
      <args> x[9] x[23] </args>
      <args> x[9] x[27] </args>
      <args> x[9] x[37] </args>
      <args> x[9] x[41] </args>
      <args> x[10] x[14] </args>
      <args> x[10] x[18] </args>
      <args> x[10] x[22] </args>
      <args> x[10] x[26] </args>
      <args> x[10] x[36] </args>
      <args> x[10] x[40] </args>
      <args> x[11] x[17] </args>
      <args> x[11] x[20] </args>
      <args> x[11] x[25] </args>
      <args> x[11] x[28] </args>
      <args> x[11] x[39] </args>
      <args> x[11] x[42] </args>
      <args> x[12] x[16] </args>
      <args> x[12] x[20] </args>
      <args> x[12] x[24] </args>
      <args> x[12] x[28] </args>
      <args> x[12] x[38] </args>
      <args> x[12] x[42] </args>
      <args> x[13] x[18] </args>
      <args> x[13] x[19] </args>
      <args> x[13] x[26] </args>
      <args> x[13] x[27] </args>
      <args> x[13] x[40] </args>
      <args> x[13] x[41] </args>
      <args> x[14] x[21] </args>
      <args> x[14] x[30] </args>
      <args> x[14] x[32] </args>
      <args> x[14] x[43] </args>
      <args> x[15] x[21] </args>
      <args> x[15] x[29] </args>
      <args> x[15] x[31] </args>
      <args> x[15] x[43] </args>
      <args> x[16] x[21] </args>
      <args> x[16] x[30] </args>
      <args> x[16] x[34] </args>
      <args> x[16] x[43] </args>
      <args> x[17] x[21] </args>
      <args> x[17] x[29] </args>
      <args> x[17] x[33] </args>
      <args> x[17] x[43] </args>
      <args> x[18] x[21] </args>
      <args> x[18] x[32] </args>
      <args> x[18] x[35] </args>
      <args> x[18] x[43] </args>
      <args> x[19] x[21] </args>
      <args> x[19] x[31] </args>
      <args> x[19] x[35] </args>
      <args> x[19] x[43] </args>
      <args> x[20] x[21] </args>
      <args> x[20] x[33] </args>
      <args> x[20] x[34] </args>
      <args> x[20] x[43] </args>
      <args> x[21] x[36] </args>
      <args> x[21] x[37] </args>
      <args> x[21] x[38] </args>
      <args> x[21] x[39] </args>
      <args> x[21] x[40] </args>
      <args> x[21] x[41] </args>
      <args> x[21] x[42] </args>
      <args> x[22] x[45] </args>
      <args> x[22] x[47] </args>
      <args> x[22] x[52] </args>
      <args> x[22] x[54] </args>
      <args> x[23] x[44] </args>
      <args> x[23] x[46] </args>
      <args> x[23] x[51] </args>
      <args> x[23] x[53] </args>
      <args> x[24] x[45] </args>
      <args> x[24] x[49] </args>
      <args> x[24] x[52] </args>
      <args> x[24] x[56] </args>
      <args> x[25] x[44] </args>
      <args> x[25] x[48] </args>
      <args> x[25] x[51] </args>
      <args> x[25] x[55] </args>
      <args> x[26] x[47] </args>
      <args> x[26] x[50] </args>
      <args> x[26] x[54] </args>
      <args> x[26] x[57] </args>
      <args> x[27] x[46] </args>
      <args> x[27] x[50] </args>
      <args> x[27] x[53] </args>
      <args> x[27] x[57] </args>
      <args> x[28] x[48] </args>
      <args> x[28] x[49] </args>
      <args> x[28] x[55] </args>
      <args> x[28] x[56] </args>
      <args> x[29] x[45] </args>
      <args> x[29] x[47] </args>
      <args> x[29] x[59] </args>
      <args> x[29] x[61] </args>
      <args> x[30] x[44] </args>
      <args> x[30] x[46] </args>
      <args> x[30] x[58] </args>
      <args> x[30] x[60] </args>
      <args> x[31] x[45] </args>
      <args> x[31] x[49] </args>
      <args> x[31] x[59] </args>
      <args> x[31] x[63] </args>
      <args> x[32] x[44] </args>
      <args> x[32] x[48] </args>
      <args> x[32] x[58] </args>
      <args> x[32] x[62] </args>
      <args> x[33] x[47] </args>
      <args> x[33] x[50] </args>
      <args> x[33] x[61] </args>
      <args> x[33] x[64] </args>
      <args> x[34] x[46] </args>
      <args> x[34] x[50] </args>
      <args> x[34] x[60] </args>
      <args> x[34] x[64] </args>
      <args> x[35] x[48] </args>
      <args> x[35] x[49] </args>
      <args> x[35] x[62] </args>
      <args> x[35] x[63] </args>
      <args> x[36] x[52] </args>
      <args> x[36] x[54] </args>
      <args> x[36] x[65] </args>
      <args> x[37] x[51] </args>
      <args> x[37] x[53] </args>
      <args> x[37] x[65] </args>
      <args> x[38] x[52] </args>
      <args> x[38] x[56] </args>
      <args> x[38] x[65] </args>
      <args> x[39] x[51] </args>
      <args> x[39] x[55] </args>
      <args> x[39] x[65] </args>
      <args> x[40] x[54] </args>
      <args> x[40] x[57] </args>
      <args> x[40] x[65] </args>
      <args> x[41] x[53] </args>
      <args> x[41] x[57] </args>
      <args> x[41] x[65] </args>
      <args> x[42] x[55] </args>
      <args> x[42] x[56] </args>
      <args> x[42] x[65] </args>
      <args> x[43] x[58] </args>
      <args> x[43] x[59] </args>
      <args> x[43] x[60] </args>
      <args> x[43] x[61] </args>
      <args> x[43] x[62] </args>
      <args> x[43] x[63] </args>
      <args> x[43] x[64] </args>
      <args> x[44] x[66] </args>
      <args> x[45] x[66] </args>
      <args> x[46] x[66] </args>
      <args> x[47] x[66] </args>
      <args> x[48] x[66] </args>
      <args> x[49] x[66] </args>
      <args> x[50] x[66] </args>
      <args> x[51] x[66] </args>
      <args> x[52] x[66] </args>
      <args> x[53] x[66] </args>
      <args> x[54] x[66] </args>
      <args> x[55] x[66] </args>
      <args> x[56] x[66] </args>
      <args> x[57] x[66] </args>
      <args> x[58] x[66] </args>
      <args> x[59] x[66] </args>
      <args> x[60] x[66] </args>
      <args> x[61] x[66] </args>
      <args> x[62] x[66] </args>
      <args> x[63] x[66] </args>
      <args> x[64] x[66] </args>
      <args> x[65] x[66] </args>
    </group>
  </constraints>
  <objectives>
    <minimize type="maximum"> x[] </minimize>
  </objectives>
</instance>
